n = 10; 

m=14; 


95	87	70	69	60	74	88	70	96	79
96	80	84	72	82	65	58	22	67	67
53	29	29	8	65	30	24	52	21	58
7	25	5	52	75	10	37	49	12	65
39	50	28	57	34	13	54	69	35	22
6	22	5	76	9	69	32	69	72	37
50	21	45	13	61	77	19	48	69	6
28	75	27	41	65	49	16	45	21	45
59	17	14	43	51	22	76	67	49	9
37	31	46	53	43	61	69	2	17	69
29	61	53	66	42	46	63	40	14	55
73	9	73	49	8	41	46	5	33	80
19	4	65	76	33	13	50	7	5	70
53	29	29	8	65	30	24	52	21	58
									

 
 


 

 
